155
0 76 37 150 78 134 130 7 104 118 
8 9 42 5 56 142 40 126 31 136 
94 132 91 3 24 57 14 102 101 89 
97 45 1 88 35 30 52 17 90 43 
69 77 114 123 140 139 81 138 100 48 
61 60 4 116 93 63 70 75 28 26 
27 79 12 32 11 66 137 143 10 71 
18 141 2 68 147 85 145 25 106 153 
107 34 73 152 96 47 19 109 127 149 
22 87 80 50 23 115 119 110 13 124 
103 113 55 146 64 51 20 125 33 74 
133 49 67 148 54 154 144 21 151 105 
129 82 44 65 39 41 36 16 112 120 
92 131 84 122 83 121 53 29 135 99 
59 95 108 128 6 117 38 111 86 98 
72 62 58 46 15 
